COLUMNS

passenger_count
pickup_ID
dropoff_ID
request_time_sec
pickup_district
dropoff_district
LDuals
IDuals
vehicle_ID
pick_position
drop_position

REQUESTS_INFO
1      1181      1235      28759     84        84        126       126       22        1         2         
3      366       522       28665     299       52        252       252       27        1         2         
2      501       134       28754     52        9         172       172       36        1         3         
1      461       652       28767     189       189       119       119       66        1         3         
2      314       632       28712     119       189       207       207       80        1         2         
1      61        188       28754     98        286       98        98        88        1         2         
3      1114      968       28751     50        290       150       150       89        1         2         
1      917       655       28763     291       189       102       102       105       1         3         
1      348       373       28697     299       119       201       201       113       1         3         
1      742       946       28749     290       290       107       107       119       1         2         
3      434       670       28713     52        280       188       188       145       1         3         
2      183       217       28748     178       87        151       151       146       1         2         
3      970       314       28751     290       119       153       153       192       1         3         
1      208       629       28751     286       189       121       121       213       1         4         
1      505       593       28744     52        52        156       156       233       1         2         
2      1115      1218      28726     84        84        185       185       247       1         2         
1      523       439       28721     52        189       172       172       265       1         3         
3      726       860       28726     290       290       174       174       277       1         3         
1      858       349       28689     290       127       178       178       283       1         3         
1      500       532       28748     52        199       129       129       289       1         2         
4      1027      1225      28768     50        192       149       149       296       1         2         
1      574       508       28760     189       199       153       153       298       1         2         
2      368       247       28747     299       266       191       191       299       1         2         
3      1148      1189      28712     291       192       182       182       306       1         2         
3      772       63        28713     290       98        151       151       341       1         4         
1      770       605       28736     290       189       165       165       341       2         3         
1      527       354       28768     52        119       163       163       343       1         2         
1      791       858       28746     290       290       137       137       346       1         2         
1      287       183       28738     299       178       183       183       353       1         2         
3      970       314       28751     290       119       153       153       408       1         3         
3      479       500       28766     52        52        187       187       424       1         2         
1      757       604       28742     131       189       109       109       435       1         2         
1      726       579       28733     290       189       167       167       443       1         3         
1      726       828       28764     290       291       136       136       443       2         4         
3      501       134       28754     52        9         172       172       462       1         2         
1      1010      649       28761     290       189       138       138       529       1         2         
1      354       651       28760     119       189       122       122       538       1         2         
1      466       604       28650     199       189       237       237       591       1         2         
1      1025      791       28747     291       290       144       144       598       1         3         
1      873       1045      28763     291       291       118       118       600       1         2         
1      43        675       28761     9         189       121       121       620       1         2         
2      787       805       28764     50        291       142       142       624       1         3         
3      1355      1606      28743     129       296       190       190       672       1         2         
2      791       916       28756     290       291       139       139       696       1         3         
1      527       742       28761     52        290       170       170       746       1         4         
1      1026      649       28743     291       189       162       162       748       1         2         
1      527       48        28751     52        98        180       180       764       1         3         
3      1187      842       28766     291       290       108       108       777       1         2         
1      307       133       28748     127       9         160       160       842       1         2         
1      1428      1396      28720     999       999       225       225       858       1         2         
1      461       747       28761     189       290       125       125       862       1         3         
1      769       441       28725     290       168       180       180       879       1         3         
1      1099      1094      28705     84        84        165       165       887       1         2         
4      1026      916       28754     291       291       168       168       909       1         2         
1      197       338       28694     178       277       232       232       935       1         2         
2      782       747       28756     291       290       123       123       938       1         3         
3      156       499       28755     286       52        176       176       980       1         2         
1      350       553       28729     127       189       200       200       984       1         3         
3      746       459       28699     290       189       213       213       1011      1         2         
1      950       599       28722     290       280       179       179       1015      1         3         
1      371       604       28663     52        189       199       199       1111      1         2         
3      1110      858       28734     291       290       193       193       1120      1         2         
3      655       557       28728     189       189       157       157       1132      1         3         
2      397       292       28658     168       87        210       210       1136      1         2         
2      992       949       28745     290       290       168       168       1142      1         2         
1      929       1218      28769     290       84        146       146       1184      1         2         
3      824       958       28718     291       291       143       143       1221      1         2         
1      369       767       28763     52        290       134       134       1226      1         3         
2      816       671       28747     290       280       116       116       1250      1         2         
2      179       523       28726     178       52        247       247       1258      1         2         
1      252       628       28765     206       189       160       160       1280      2         4         
1      527       603       28747     52        189       184       184       1311      1         3         
1      527       726       28766     52        290       165       165       1311      2         4         
2      930       479       28741     999       52        183       183       1322      1         2         
1      816       10        28756     290       98        107       107       1337      1         2         
3      793       1372      28748     290       129       162       162       1348      1         3         
1      284       208       28732     299       286       163       163       1360      1         2         
1      371       117       28742     52        286       120       120       1400      1         2         
2      217       189       28736     87        286       173       173       1406      1         2         
1      485       690       28766     189       131       109       109       1443      1         2         
1      348       627       28677     299       189       208       208       1444      1         3         
3      793       1372      28748     290       129       162       162       1485      1         3         
1      510       529       28770     199       189       0         0         0         0         0         
1      745       557       28770     290       189       0         0         0         0         0         
1      475       525       28770     52        52        0         0         0         0         0         
1      463       409       28770     168       52        0         0         0         0         0         
1      621       672       28771     280       189       0         0         0         0         0         
3      1131      646       28771     291       280       0         0         0         0         0         
3      1131      646       28771     291       280       0         0         0         0         0         
1      487       527       28771     199       52        0         0         0         0         0         
2      213       581       28771     266       189       0         0         0         0         0         
3      173       499       28772     286       52        0         0         0         0         0         
2      173       499       28772     286       52        0         0         0         0         0         
1      48        337       28772     98        277       0         0         0         0         0         
1      579       673       28772     189       189       0         0         0         0         0         
1      189       309       28772     286       127       0         0         0         0         0         
1      388       671       28772     299       280       0         0         0         0         0         
1      791       134       28772     290       9         0         0         0         0         0         
1      864       862       28772     290       290       0         0         0         0         0         
1      816       627       28772     290       189       0         0         0         0         0         
3      723       1032      28773     290       84        0         0         0         0         0         
2      723       1032      28773     290       84        0         0         0         0         0         
2      991       662       28773     290       131       0         0         0         0         0         
1      772       1011      28773     290       84        0         0         0         0         0         
2      972       581       28773     290       189       0         0         0         0         0         
2      662       859       28774     131       290       0         0         0         0         0         
1      232       721       28774     266       290       0         0         0         0         0         
1      579       1033      28774     189       84        0         0         0         0         0         
1      930       1101      28774     999       84        0         0         0         0         0         
3      276       399       28774     87        168       0         0         0         0         0         
2      530       946       28774     189       290       0         0         0         0         0         
3      1045      962       28775     291       291       0         0         0         0         0         
3      1045      962       28775     291       291       0         0         0         0         0         
1      118       416       28775     286       100       0         0         0         0         0         
1      739       416       28775     189       100       0         0         0         0         0         
1      893       893       28775     291       291       0         0         0         0         0         
1      310       499       28775     127       52        0         0         0         0         0         
1      633       718       28776     189       189       0         0         0         0         0         
1      1053      621       28776     84        280       0         0         0         0         0         
1      416       780       28776     100       291       0         0         0         0         0         
1      603       676       28776     189       189       0         0         0         0         0         
1      218       350       28776     87        127       0         0         0         0         0         
1      1434      695       28776     129       189       0         0         0         0         0         
1      396       466       28776     119       199       0         0         0         0         0         
3      668       507       28776     280       189       0         0         0         0         0         
2      668       507       28776     280       189       0         0         0         0         0         
1      608       747       28777     189       290       0         0         0         0         0         
1      373       358       28777     119       168       0         0         0         0         0         
1      195       275       28777     207       87        0         0         0         0         0         
1      285       604       28777     299       189       0         0         0         0         0         
1      600       665       28778     280       131       0         0         0         0         0         
1      436       1225      28778     100       192       0         0         0         0         0         
1      980       1086      28778     291       291       0         0         0         0         0         
1      212       119       28778     266       286       0         0         0         0         0         
2      133       720       28778     9         290       0         0         0         0         0         
1      663       694       28778     131       189       0         0         0         0         0         
1      744       747       28778     290       290       0         0         0         0         0         
2      713       599       28779     131       280       0         0         0         0         0         
1      532       692       28779     199       280       0         0         0         0         0         
4      718       627       28779     189       189       0         0         0         0         0         
1      325       627       28779     299       189       0         0         0         0         0         
1      924       1377      28780     290       129       0         0         0         0         0         
1      48        570       28780     98        52        0         0         0         0         0         
3      328       534       28780     299       199       0         0         0         0         0         
1      549       717       28780     52        189       0         0         0         0         0         
1      621       697       28780     280       189       0         0         0         0         0         
1      547       549       28780     52        52        0         0         0         0         0         
1      308       232       28780     127       266       0         0         0         0         0         
1      694       557       28780     189       189       0         0         0         0         0         
1      760       871       28781     291       291       0         0         0         0         0         
1      791       557       28781     290       189       0         0         0         0         0         
3      489       651       28782     199       189       0         0         0         0         0         
2      679       738       28782     290       189       0         0         0         0         0         
1      609       646       28782     189       280       0         0         0         0         0         
3      1446      850       28782     129       291       0         0         0         0         0         
3      1026      1065      28782     291       291       0         0         0         0         0         
3      1026      1065      28782     291       291       0         0         0         0         0         
3      489       651       28782     199       189       0         0         0         0         0         
1      462       556       28783     189       199       0         0         0         0         0         
1      1022      968       28783     291       290       0         0         0         0         0         
1      599       415       28783     280       100       0         0         0         0         0         
1      189       116       28783     286       9         0         0         0         0         0         
1      722       416       28783     290       100       0         0         0         0         0         
2      646       556       28784     280       199       0         0         0         0         0         
3      646       556       28784     280       199       0         0         0         0         0         
1      148       356       28784     178       119       0         0         0         0         0         
1      143       374       28784     54        119       0         0         0         0         0         
1      618       739       28785     131       189       0         0         0         0         0         
1      460       499       28785     189       52        0         0         0         0         0         
3      138       1174      28785     57        129       0         0         0         0         0         
1      417       791       28785     100       290       0         0         0         0         0         
1      1142      1055      28785     84        84        0         0         0         0         0         
1      747       599       28785     290       280       0         0         0         0         0         
1      621       603       28785     280       189       0         0         0         0         0         
1      824       772       28786     291       290       0         0         0         0         0         
1      950       430       28786     290       52        0         0         0         0         0         
3      894       960       28786     291       291       0         0         0         0         0         
1      925       946       28786     290       290       0         0         0         0         0         
1      913       1530      28786     291       296       0         0         0         0         0         
1      772       604       28786     290       189       0         0         0         0         0         
2      791       969       28786     290       290       0         0         0         0         0         
3      758       548       28787     131       52        0         0         0         0         0         
1      860       894       28787     290       291       0         0         0         0         0         
3      758       548       28787     131       52        0         0         0         0         0         
1      758       578       28787     131       189       0         0         0         0         0         
1      783       744       28788     50        290       0         0         0         0         0         
1      464       655       28789     168       189       0         0         0         0         0         
1      1321      1109      28789     129       291       0         0         0         0         0         
2      973       184       28789     84        87        0         0         0         0         0         
3      743       652       28789     290       189       0         0         0         0         0         
2      743       652       28789     290       189       0         0         0         0         0         
1      1058      1055      28790     84        84        0         0         0         0         0         
1      835       378       28790     290       168       0         0         0         0         0         
3      992       670       28790     290       280       0         0         0         0         0         
1      551       673       28791     189       189       0         0         0         0         0         
3      793       652       28791     290       189       0         0         0         0         0         
3      793       652       28791     290       189       0         0         0         0         0         
1      608       863       28791     189       290       0         0         0         0         0         
1      778       275       28791     131       87        0         0         0         0         0         
1      922       558       28791     50        189       0         0         0         0         0         
1      524       308       28791     52        127       0         0         0         0         0         
1      1153      1188      28792     50        192       0         0         0         0         0         
2      443       651       28792     168       189       0         0         0         0         0         
3      443       651       28792     168       189       0         0         0         0         0         
1      48        116       28792     98        9         0         0         0         0         0         
1      522       526       28792     52        52        0         0         0         0         0         
1      552       1057      28792     189       84        0         0         0         0         0         
1      1114      968       28792     50        290       0         0         0         0         0         
1      725       582       28792     290       189       0         0         0         0         0         
2      527       353       28792     52        119       0         0         0         0         0         
1      865       969       28792     290       290       0         0         0         0         0         
1      47        64        28792     98        98        0         0         0         0         0         
2      604       623       28792     189       280       0         0         0         0         0         
1      146       123       28792     178       54        0         0         0         0         0         
1      666       387       28793     131       299       0         0         0         0         0         
1      505       556       28793     52        199       0         0         0         0         0         
3      918       859       28793     50        290       0         0         0         0         0         
2      918       859       28793     50        290       0         0         0         0         0         
3      296       581       28793     277       189       0         0         0         0         0         
2      296       581       28793     277       189       0         0         0         0         0         
1      652       580       28793     189       189       0         0         0         0         0         
1      189       304       28793     286       299       0         0         0         0         0         
1      1002      1129      28794     291       291       0         0         0         0         0         
2      583       734       28794     189       131       0         0         0         0         0         
1      1149      937       28794     291       291       0         0         0         0         0         
3      836       1027      28794     290       50        0         0         0         0         0         
1      548       484       28794     52        189       0         0         0         0         0         
2      1282      1073      28794     192       50        0         0         0         0         0         
1      390       430       28795     52        52        0         0         0         0         0         
3      295       531       28795     87        189       0         0         0         0         0         
1      771       905       28795     290       290       0         0         0         0         0         
2      295       531       28795     87        189       0         0         0         0         0         
1      1025      721       28795     291       290       0         0         0         0         0         
2      438       552       28795     100       189       0         0         0         0         0         
1      510       629       28795     199       189       0         0         0         0         0         
1      434       411       28795     52        52        0         0         0         0         0         
2      948       904       28795     290       290       0         0         0         0         0         
1      782       725       28795     291       290       0         0         0         0         0         
3      189       390       28796     286       52        0         0         0         0         0         
3      189       390       28796     286       52        0         0         0         0         0         
1      252       304       28796     206       299       0         0         0         0         0         
1      959       486       28796     291       199       0         0         0         0         0         
2      991       743       28796     290       290       0         0         0         0         0         
1      499       78        28796     52        9         0         0         0         0         0         
1      43        652       28796     9         189       0         0         0         0         0         
1      372       604       28796     119       189       0         0         0         0         0         
1      436       544       28796     100       52        0         0         0         0         0         
1      792       630       28796     290       189       0         0         0         0         0         
1      189       651       28796     286       189       0         0         0         0         0         
1      781       670       28797     291       280       0         0         0         0         0         
1      739       739       28797     189       189       0         0         0         0         0         
1      527       603       28797     52        189       0         0         0         0         0         
1      618       670       28797     131       280       0         0         0         0         0         
1      749       882       28797     290       290       0         0         0         0         0         
2      760       720       28798     291       290       0         0         0         0         0         
1      600       650       28798     280       189       0         0         0         0         0         
3      745       837       28798     290       290       0         0         0         0         0         
1      745       521       28798     290       52        0         0         0         0         0         
1      78        270       28798     9         127       0         0         0         0         0         
1      134       718       28799     9         189       0         0         0         0         0         
1      905       811       28799     290       290       0         0         0         0         0         
1      864       116       28799     290       9         0         0         0         0         0         
